c preprocessed version of dimacs_fpsol2.i.3, 127 vertices, 1964 edges
p td 127 1964
1 0
8 0
32 0
13 0
2 0
9 0
35 0
54 0
57 0
22 0
2 1
9 1
1 8
1 32
1 31
1 52
1 29
1 3
1 5
1 7
1 10
1 24
1 26
1 27
1 25
1 11
1 28
1 53
1 56
1 58
1 55
1 23
1 12
1 82
1 33
54 1
57 1
22 1
2 3
2 4
2 5
2 7
2 8
2 10
2 24
2 26
2 27
2 25
2 11
2 32
2 31
2 52
2 29
2 28
2 53
2 56
2 58
2 55
2 23
2 12
2 9
2 6
54 2
57 2
22 2
4 3
6 3
9 3
3 11
3 25
3 27
3 26
3 24
3 10
3 7
3 5
3 12
3 23
3 28
3 55
3 58
3 56
3 53
35 3
54 3
57 3
36 3
22 3
81 3
87 3
100 3
102 3
107 3
109 3
4 5
4 7
4 10
4 24
4 26
4 27
4 25
4 11
4 31
4 52
4 29
4 30
4 51
4 28
4 53
4 56
4 58
4 55
4 23
4 12
9 4
35 4
54 4
57 4
36 4
62 4
22 4
48 4
50 4
6 5
9 5
5 11
5 25
5 27
5 26
5 24
5 10
5 7
5 12
5 23
5 28
5 55
5 58
5 56
5 53
35 5
54 5
57 5
36 5
22 5
81 5
87 5
100 5
102 5
107 5
109 5
6 7
6 10
6 24
6 26
6 27
6 25
6 11
35 6
54 6
57 6
36 6
22 6
8 7
9 7
7 11
7 25
7 27
7 26
7 24
7 10
7 12
7 23
7 28
7 55
7 58
7 56
7 53
35 7
54 7
57 7
36 7
22 7
81 7
87 7
100 7
102 7
107 7
109 7
9 8
8 32
8 31
8 52
8 29
8 10
8 24
8 26
8 27
8 25
8 11
8 28
8 53
8 56
8 58
8 55
8 23
8 12
8 84
8 82
8 33
54 8
57 8
22 8
9 10
9 24
9 26
9 27
9 25
9 11
9 32
9 31
9 52
9 29
9 28
9 53
9 56
9 58
9 55
9 23
9 12
9 33
54 9
57 9
22 9
10 11
10 25
10 27
10 26
10 24
10 12
10 23
10 28
10 55
10 58
10 56
10 53
35 10
54 10
57 10
36 10
22 10
81 10
87 10
100 10
102 10
107 10
109 10
11 12
24 11
26 11
27 11
25 11
11 23
11 28
11 55
11 58
11 56
11 53
35 11
54 11
57 11
36 11
22 11
81 11
87 11
100 11
102 11
107 11
109 11
13 12
24 12
26 12
27 12
25 12
32 12
31 12
52 12
29 12
35 12
54 12
57 12
36 12
22 12
13 14
13 17
13 23
13 55
13 108
13 53
13 56
13 58
13 43
13 42
13 41
13 33
13 82
13 84
13 86
13 34
13 85
13 83
13 111
13 110
13 92
13 96
13 95
13 91
13 93
13 101
13 94
13 90
13 89
13 103
13 88
13 19
37 13
99 13
97 13
22 13
15 14
19 14
17 14
16 14
105 14
22 14
48 14
50 14
81 14
87 14
100 14
102 14
104 14
107 14
109 14
16 15
15 17
15 19
15 18
15 20
15 21
105 15
106 15
22 15
81 15
87 15
100 15
102 15
104 15
107 15
109 15
16 17
16 18
16 20
16 19
16 105
16 106
22 16
48 16
50 16
81 16
87 16
100 16
102 16
104 16
107 16
109 16
18 17
19 17
105 17
22 17
48 17
50 17
81 17
87 17
100 17
102 17
104 17
107 17
109 17
18 19
21 18
20 18
105 18
22 18
48 18
50 18
81 18
87 18
100 18
102 18
104 18
107 18
109 18
20 19
105 19
106 19
22 19
48 19
50 19
81 19
87 19
100 19
102 19
104 19
107 19
109 19
21 20
105 20
22 20
48 20
50 20
81 20
87 20
100 20
102 20
104 20
107 20
109 20
113 20
22 21
48 21
50 21
81 21
87 21
100 21
102 21
104 21
107 21
109 21
113 21
22 23
22 24
22 25
22 26
22 27
22 28
22 29
22 30
22 31
22 32
22 33
22 38
22 37
22 41
22 42
22 43
22 40
22 39
22 44
22 45
22 36
22 46
22 47
22 49
22 51
22 52
22 35
22 34
22 82
22 83
22 84
22 85
22 86
22 55
22 54
22 53
22 57
22 56
22 58
22 59
22 60
22 61
22 62
22 63
22 64
22 65
22 66
22 67
22 68
22 69
22 70
22 71
22 72
22 73
22 74
22 75
22 76
22 77
22 78
22 79
22 80
22 88
22 89
22 90
22 91
22 92
22 93
22 94
22 95
22 96
22 97
22 98
22 99
22 101
22 103
22 108
22 110
22 111
22 105
22 106
22 48
22 50
22 81
22 87
22 100
22 102
22 104
22 107
22 109
22 112
22 114
22 113
24 23
25 23
26 23
27 23
32 23
31 23
52 23
29 23
35 23
54 23
57 23
36 23
24 25
24 27
24 26
24 28
24 55
24 58
24 56
24 53
35 24
54 24
57 24
36 24
81 24
87 24
100 24
102 24
107 24
109 24
26 25
27 25
25 28
25 55
25 58
25 56
25 53
35 25
54 25
57 25
36 25
81 25
87 25
100 25
102 25
107 25
109 25
26 27
26 28
26 55
26 58
26 56
26 53
35 26
54 26
57 26
36 26
81 26
87 26
100 26
102 26
107 26
109 26
27 28
27 55
27 58
27 56
27 53
35 27
54 27
57 27
36 27
81 27
87 27
100 27
102 27
107 27
109 27
29 28
32 28
31 28
52 28
28 55
28 58
28 56
28 53
35 28
54 28
57 28
36 28
29 30
29 34
32 29
31 29
52 29
29 53
29 56
29 58
29 55
29 86
29 84
29 82
29 33
29 85
29 51
35 29
54 29
57 29
36 29
31 30
52 30
59 30
30 51
30 60
30 61
30 92
30 96
30 95
30 91
30 93
30 101
30 94
30 90
30 89
30 103
30 88
98 30
73 30
36 30
99 30
62 30
97 30
76 30
48 30
50 30
81 30
87 30
100 30
102 30
104 30
107 30
109 30
32 31
31 52
31 53
31 56
31 58
31 55
31 51
35 31
54 31
57 31
36 31
32 33
32 52
32 53
32 56
32 58
32 55
32 86
32 84
32 82
54 32
57 32
34 33
35 33
83 33
85 33
86 33
84 33
82 33
81 33
87 33
100 33
102 33
107 33
109 33
35 34
34 82
83 34
34 84
85 34
34 86
81 34
87 34
100 34
102 34
107 34
109 34
36 35
35 52
35 55
35 56
35 53
35 58
35 82
35 84
35 86
35 54
57 35
36 37
40 36
36 45
36 46
36 51
36 52
36 55
36 54
36 53
36 57
36 56
36 58
36 59
62 36
48 36
50 36
81 36
87 36
100 36
102 36
107 36
109 36
37 38
37 41
37 42
37 43
37 39
40 37
44 37
48 37
81 37
87 37
100 37
102 37
107 37
109 37
38 39
40 38
44 38
48 38
81 38
87 38
100 38
102 38
107 38
109 38
40 39
44 39
48 39
81 39
87 39
100 39
102 39
107 39
109 39
40 41
40 42
40 43
40 45
40 46
40 47
40 49
40 108
40 44
48 40
50 40
81 40
87 40
100 40
102 40
107 40
109 40
41 42
44 41
48 41
81 41
87 41
100 41
102 41
107 41
109 41
42 43
44 42
48 42
81 42
87 42
100 42
102 42
107 42
109 42
44 43
48 43
81 43
87 43
100 43
102 43
107 43
109 43
44 45
44 46
44 49
48 44
50 44
81 44
87 44
100 44
102 44
107 44
109 44
45 46
45 47
45 49
48 45
50 45
81 45
87 45
100 45
102 45
107 45
109 45
46 47
46 49
48 46
50 46
81 46
87 46
100 46
102 46
107 46
109 46
48 47
50 47
81 47
87 47
100 47
102 47
107 47
109 47
48 49
48 51
48 59
48 60
48 61
48 62
48 63
48 64
48 65
48 66
48 67
48 68
48 69
48 70
48 71
48 72
48 73
48 74
48 75
48 76
48 77
48 78
48 79
48 80
48 88
48 89
48 90
48 91
48 92
48 93
48 94
48 95
48 96
48 97
48 98
48 99
48 101
48 103
48 108
48 105
48 106
48 50
48 81
48 87
48 100
48 102
48 104
48 107
48 109
48 112
48 114
48 113
50 49
81 49
87 49
100 49
102 49
107 49
109 49
50 51
50 59
50 60
50 61
50 62
50 63
50 64
50 65
50 66
50 67
50 68
50 69
50 70
50 71
50 72
50 73
50 74
50 75
50 76
50 77
50 78
50 79
50 80
50 88
50 89
50 90
50 91
50 92
50 93
50 94
50 95
50 96
50 97
50 98
50 99
50 101
50 103
50 105
50 106
50 112
50 114
50 113
50 104
50 81
50 87
50 100
50 102
50 107
50 109
52 51
59 51
61 51
60 51
51 92
51 96
51 95
51 91
51 93
51 101
51 94
51 90
51 89
51 103
51 88
51 63
98 51
73 51
99 51
62 51
97 51
76 51
81 51
87 51
100 51
102 51
104 51
107 51
109 51
52 53
52 56
52 58
52 55
54 52
57 52
54 53
57 53
54 55
54 56
54 58
54 57
56 55
57 55
57 56
56 58
57 58
59 60
59 61
59 63
59 72
59 71
59 70
59 64
59 69
59 65
59 75
59 68
59 67
59 78
59 79
59 77
59 66
59 88
59 103
59 89
59 90
59 94
59 101
59 93
59 91
59 95
59 96
59 92
59 98
59 80
73 59
74 59
99 59
62 59
97 59
76 59
112 59
81 59
114 59
87 59
100 59
102 59
104 59
107 59
109 59
61 60
62 60
76 60
81 60
87 60
100 60
102 60
104 60
107 60
109 60
62 61
76 61
81 61
87 61
100 61
102 61
104 61
107 61
109 61
62 63
62 64
62 65
62 66
62 67
62 68
62 69
62 70
62 71
62 72
62 73
62 74
62 75
62 77
62 78
62 79
62 80
62 88
62 89
62 90
62 91
62 92
62 93
62 94
62 95
62 96
62 101
62 98
62 99
62 103
62 76
62 97
112 62
81 62
114 62
87 62
100 62
102 62
104 62
107 62
109 62
63 64
63 70
63 71
63 72
73 63
74 63
76 63
81 63
87 63
100 63
102 63
104 63
107 63
109 63
64 65
70 64
64 75
64 69
74 64
76 64
112 64
81 64
87 64
100 64
102 64
104 64
107 64
109 64
65 66
70 65
74 65
69 65
65 68
65 77
65 79
65 78
65 67
65 75
80 65
76 65
112 65
81 65
114 65
87 65
100 65
102 65
104 65
107 65
109 65
67 66
78 66
79 66
77 66
80 66
76 66
81 66
87 66
100 66
102 66
104 66
107 66
109 66
68 67
67 77
67 79
67 78
80 67
76 67
112 67
81 67
114 67
87 67
100 67
102 67
104 67
107 67
109 67
69 68
75 68
68 78
76 68
112 68
81 68
114 68
87 68
100 68
102 68
104 68
107 68
109 68
70 69
74 69
69 75
76 69
112 69
81 69
87 69
100 69
102 69
104 69
107 69
109 69
71 70
73 70
74 70
76 70
81 70
87 70
100 70
102 70
104 70
107 70
109 70
72 71
73 71
76 71
81 71
87 71
100 71
102 71
104 71
107 71
109 71
73 72
76 72
81 72
87 72
100 72
102 72
104 72
107 72
109 72
73 74
76 73
81 73
87 73
100 73
102 73
104 73
107 73
109 73
74 75
76 74
81 74
87 74
100 74
102 74
104 74
107 74
109 74
76 75
112 75
81 75
114 75
87 75
100 75
102 75
104 75
107 75
109 75
76 77
76 78
76 79
76 80
76 88
76 89
76 90
76 91
76 92
76 93
76 94
76 95
76 96
76 101
76 98
76 99
76 103
97 76
112 76
81 76
114 76
87 76
100 76
102 76
104 76
107 76
109 76
78 77
79 77
80 77
112 77
81 77
87 77
100 77
102 77
104 77
107 77
109 77
78 79
80 78
112 78
81 78
114 78
87 78
100 78
102 78
104 78
107 78
109 78
80 79
112 79
81 79
114 79
87 79
100 79
102 79
104 79
107 79
109 79
81 80
87 80
100 80
102 80
104 80
107 80
109 80
81 82
81 83
81 84
81 85
81 86
81 88
81 89
81 90
81 91
81 92
81 93
81 94
81 95
81 96
81 97
81 98
81 99
81 101
81 103
81 108
81 110
81 111
81 105
81 106
112 81
81 113
81 104
81 114
81 100
81 102
81 87
81 107
81 109
83 82
85 82
86 82
84 82
87 82
100 82
102 82
107 82
109 82
83 84
83 86
83 85
87 83
100 83
102 83
107 83
109 83
85 84
86 84
87 84
100 84
102 84
107 84
109 84
85 86
87 85
100 85
102 85
107 85
109 85
87 86
100 86
102 86
107 86
109 86
87 88
87 89
87 90
87 91
87 92
87 93
87 94
87 95
87 96
87 97
87 98
87 99
87 101
87 103
87 108
87 110
87 111
87 105
87 106
112 87
114 87
87 113
87 104
87 100
87 102
87 107
87 109
88 89
88 103
100 88
102 88
104 88
107 88
109 88
89 90
103 89
89 94
100 89
102 89
104 89
107 89
109 89
90 91
103 90
90 93
90 101
90 94
100 90
102 90
104 90
107 90
109 90
91 92
94 91
93 91
91 96
91 95
97 91
100 91
102 91
104 91
107 91
109 91
93 92
98 92
99 92
97 92
100 92
102 92
104 92
107 92
109 92
94 93
93 95
101 93
93 96
98 93
99 93
97 93
100 93
102 93
104 93
107 93
109 93
94 95
94 101
100 94
102 94
104 94
107 94
109 94
95 96
100 95
102 95
104 95
107 95
109 95
97 96
100 96
102 96
104 96
107 96
109 96
97 98
97 99
100 97
102 97
104 97
107 97
109 97
99 98
100 98
102 98
104 98
107 98
109 98
100 99
102 99
104 99
107 99
109 99
100 101
100 103
100 108
100 110
100 111
100 105
100 106
112 100
114 100
100 113
100 104
100 102
100 107
100 109
102 101
104 101
107 101
109 101
102 103
102 108
102 110
102 111
102 105
102 106
112 102
114 102
102 113
102 104
102 107
102 109
104 103
107 103
109 103
104 105
104 106
112 104
114 104
104 113
104 109
104 107
105 106
107 105
109 105
107 106
109 106
107 108
107 110
107 111
112 107
114 107
107 113
107 109
109 108
109 110
109 111
112 109
114 109
109 113
112 113
112 114
114 113
115 12
115 14
115 123
115 28
115 126
115 116
115 117
115 118
115 119
115 120
115 121
115 122
115 20
115 18
115 19
115 17
115 63
115 72
115 71
115 70
115 64
115 69
115 65
115 75
115 68
115 67
115 78
115 79
115 77
115 66
115 88
115 103
115 89
115 90
115 94
115 101
115 93
115 91
115 95
115 96
115 92
115 108
115 110
115 111
115 83
115 85
115 34
115 86
115 84
115 82
115 33
115 41
115 42
115 43
115 124
115 125
115 23
115 55
115 58
115 56
115 53
115 73
115 74
115 37
115 99
115 97
115 112
115 114
116 126
116 14
116 17
116 33
116 123
116 117
116 118
116 119
116 120
116 121
116 122
116 19
116 67
116 78
116 79
116 77
116 66
116 88
116 103
116 89
116 90
116 94
116 101
116 93
116 91
116 95
116 96
116 92
116 108
116 110
116 111
116 83
116 85
116 34
116 86
116 84
116 82
116 41
116 42
116 43
116 124
116 125
116 37
116 99
116 97
117 126
117 14
117 17
117 33
117 123
117 118
117 119
117 120
117 121
117 122
117 19
117 88
117 103
117 89
117 90
117 94
117 101
117 93
117 91
117 95
117 96
117 92
117 108
117 110
117 111
117 83
117 85
117 34
117 86
117 84
117 82
117 41
117 42
117 43
117 124
117 125
117 37
117 99
117 97
118 126
118 14
118 17
118 33
118 123
118 119
118 120
118 121
118 122
118 88
118 103
118 89
118 90
118 94
118 101
118 93
118 91
118 95
118 96
118 92
118 108
118 110
118 111
118 83
118 85
118 34
118 86
118 84
118 82
118 41
118 42
118 43
118 124
118 125
118 37
118 99
118 97
119 126
119 14
119 33
119 123
119 120
119 121
119 122
119 96
119 92
119 108
119 110
119 111
119 83
119 85
119 34
119 86
119 84
119 82
119 41
119 42
119 43
119 124
119 125
119 37
119 99
119 97
120 126
120 14
120 33
120 123
120 121
120 122
120 108
120 110
120 111
120 83
120 85
120 34
120 86
120 84
120 82
120 41
120 42
120 43
120 124
120 125
120 37
121 126
121 33
121 123
121 122
121 108
121 110
121 111
121 83
121 85
121 34
121 86
121 84
121 82
121 41
121 42
121 43
121 124
121 125
121 37
122 126
122 33
122 123
122 34
122 86
122 84
122 82
122 41
122 42
122 43
122 124
122 125
122 37
123 126
123 13
123 43
123 125
123 124
123 38
123 37
123 40
123 44
123 22
123 48
123 81
123 87
123 100
123 102
123 107
123 109
124 126
124 13
124 125
124 38
124 39
124 37
124 40
124 44
124 22
124 48
124 81
124 87
124 100
124 102
124 107
124 109
125 126
125 13
125 38
125 39
125 37
125 40
125 44
125 22
125 48
125 81
125 87
125 100
125 102
125 107
125 109
126 14
126 17
126 33
126 18
126 19
126 70
126 64
126 69
126 65
126 75
126 68
126 67
126 78
126 79
126 77
126 66
126 88
126 103
126 89
126 90
126 94
126 101
126 93
126 91
126 95
126 96
126 92
126 108
126 110
126 111
126 83
126 85
126 34
126 86
126 84
126 82
126 41
126 42
126 43
126 74
126 37
126 99
126 97
126 112
126 114
